Welcome to the CBC MILP Solver 
Version: 2.10.3 
Build Date: Dec 15 2019 

command line - /home/cdmonsalvea/AI_OR_Workflow/.venv/lib/python3.10/site-packages/pulp/solverdir/cbc/linux/64/cbc /tmp/38d5bcfad3ba4025a5ad13b947b8d6b2-pulp.mps -sec 3600 -timeMode elapsed -branch -printingOptions all -solution /tmp/38d5bcfad3ba4025a5ad13b947b8d6b2-pulp.sol (default strategy 1)
At line 2 NAME          MODEL
At line 3 ROWS
At line 11 COLUMNS
At line 48 RHS
At line 55 BOUNDS
At line 59 ENDATA
Problem MODEL has 6 rows, 12 columns and 21 elements
Coin0008I MODEL read with 0 errors
seconds was changed from 1e+100 to 3600
Option for timeMode changed from cpu to elapsed
Continuous objective value is 1.28525e+06 - 0.00 seconds
Cgl0004I processed model has 6 rows, 12 columns (3 integer (3 of which binary)) and 21 elements
Cbc0038I Initial state - 3 integers unsatisfied sum - 0.413105
Cbc0038I Pass   1: suminf.    0.41310 (1) obj. 5.19776e+06 iterations 2
Cbc0038I Solution found of 7.02371e+06
Cbc0038I Relaxing continuous gives 7.02371e+06
Cbc0038I Before mini branch and bound, 0 integers at bound fixed and 4 continuous
Cbc0038I Full problem 6 rows 12 columns, reduced to 5 rows 6 columns
Cbc0038I Mini branch and bound did not improve solution (0.00 seconds)
Cbc0038I Freeing continuous variables gives a solution of 7.02371e+06
Cbc0038I Round again with cutoff of 6.44987e+06
Cbc0038I Pass   2: suminf.    0.41310 (1) obj. 5.19776e+06 iterations 0
Cbc0038I Pass   3: suminf.    0.01469 (1) obj. 6.44987e+06 iterations 2
Cbc0038I Pass   4: suminf.    0.12087 (2) obj. 6.44987e+06 iterations 3
Cbc0038I Pass   5: suminf.    0.45683 (2) obj. 6.44987e+06 iterations 1
Cbc0038I Pass   6: suminf.    0.45683 (2) obj. 6.44987e+06 iterations 0
Cbc0038I Pass   7: suminf.    0.45683 (2) obj. 6.44987e+06 iterations 0
Cbc0038I Pass   8: suminf.    0.15026 (2) obj. 6.44987e+06 iterations 3
Cbc0038I Pass   9: suminf.    0.45683 (2) obj. 6.44987e+06 iterations 2
Cbc0038I Pass  10: suminf.    0.12087 (2) obj. 6.44987e+06 iterations 1
Cbc0038I Pass  11: suminf.    0.12087 (2) obj. 6.44987e+06 iterations 0
Cbc0038I Pass  12: suminf.    0.12087 (2) obj. 6.44987e+06 iterations 0
Cbc0038I Pass  13: suminf.    0.12087 (2) obj. 6.44987e+06 iterations 0
Cbc0038I Pass  14: suminf.    0.01469 (1) obj. 6.44987e+06 iterations 4
Cbc0038I Pass  15: suminf.    0.01469 (1) obj. 6.44987e+06 iterations 0
Cbc0038I Pass  16: suminf.    0.01469 (1) obj. 6.44987e+06 iterations 0
Cbc0038I Pass  17: suminf.    0.01469 (1) obj. 6.44987e+06 iterations 0
Cbc0038I Pass  18: suminf.    0.04940 (1) obj. 6.44987e+06 iterations 3
Cbc0038I Pass  19: suminf.    0.45683 (2) obj. 6.44987e+06 iterations 3
Cbc0038I Pass  20: suminf.    0.30249 (2) obj. 6.44987e+06 iterations 1
Cbc0038I Pass  21: suminf.    0.41310 (1) obj. 5.19776e+06 iterations 4
Cbc0038I Pass  22: suminf.    0.01469 (1) obj. 6.44987e+06 iterations 2
Cbc0038I Pass  23: suminf.    0.12087 (2) obj. 6.44987e+06 iterations 3
Cbc0038I Pass  24: suminf.    0.45683 (2) obj. 6.44987e+06 iterations 1
Cbc0038I Pass  25: suminf.    0.45683 (2) obj. 6.44987e+06 iterations 0
Cbc0038I Pass  26: suminf.    0.45683 (2) obj. 6.44987e+06 iterations 0
Cbc0038I Pass  27: suminf.    0.45683 (2) obj. 6.44987e+06 iterations 0
Cbc0038I Pass  28: suminf.    0.45683 (2) obj. 6.44987e+06 iterations 0
Cbc0038I Pass  29: suminf.    0.45683 (2) obj. 6.44987e+06 iterations 0
Cbc0038I Pass  30: suminf.    0.45683 (2) obj. 6.44987e+06 iterations 0
Cbc0038I Pass  31: suminf.    0.45683 (2) obj. 6.44987e+06 iterations 0
Cbc0038I No solution found this major pass
Cbc0038I Before mini branch and bound, 0 integers at bound fixed and 2 continuous
Cbc0038I Full problem 6 rows 12 columns, reduced to 6 rows 10 columns
Cbc0038I Mini branch and bound did not improve solution (0.00 seconds)
Cbc0038I After 0.00 seconds - Feasibility pump exiting with objective of 7.02371e+06 - took 0.00 seconds
Cbc0012I Integer solution of 7023713.8 found by feasibility pump after 0 iterations and 0 nodes (0.00 seconds)
Cbc0031I 3 added rows had average density of 3
Cbc0013I At root node, 7 cuts changed objective from 1285252.5 to 7023713.8 in 1 passes
Cbc0014I Cut generator 0 (Probing) - 1 row cuts average 2.0 elements, 0 column cuts (0 active)  in 0.000 seconds - new frequency is 1
Cbc0014I Cut generator 1 (Gomory) - 3 row cuts average 3.0 elements, 0 column cuts (0 active)  in 0.000 seconds - new frequency is 1
Cbc0014I Cut generator 2 (Knapsack) - 0 row cuts average 0.0 elements, 0 column cuts (0 active)  in 0.000 seconds - new frequency is -100
Cbc0014I Cut generator 3 (Clique) - 0 row cuts average 0.0 elements, 0 column cuts (0 active)  in 0.000 seconds - new frequency is -100
Cbc0014I Cut generator 4 (MixedIntegerRounding2) - 0 row cuts average 0.0 elements, 0 column cuts (0 active)  in 0.000 seconds - new frequency is -100
Cbc0014I Cut generator 5 (FlowCover) - 0 row cuts average 0.0 elements, 0 column cuts (0 active)  in 0.000 seconds - new frequency is -100
Cbc0014I Cut generator 6 (TwoMirCuts) - 3 row cuts average 3.0 elements, 0 column cuts (0 active)  in 0.000 seconds - new frequency is 1
Cbc0001I Search completed - best objective 7023713.81985314, took 3 iterations and 0 nodes (0.00 seconds)
Cbc0035I Maximum depth 0, 0 variables fixed on reduced cost
Cuts at root node changed objective from 1.28525e+06 to 7.02371e+06
Probing was tried 1 times and created 1 cuts of which 0 were active after adding rounds of cuts (0.000 seconds)
Gomory was tried 1 times and created 3 cuts of which 0 were active after adding rounds of cuts (0.000 seconds)
Knapsack was tried 1 times and created 0 cuts of which 0 were active after adding rounds of cuts (0.000 seconds)
Clique was tried 1 times and created 0 cuts of which 0 were active after adding rounds of cuts (0.000 seconds)
MixedIntegerRounding2 was tried 1 times and created 0 cuts of which 0 were active after adding rounds of cuts (0.000 seconds)
FlowCover was tried 1 times and created 0 cuts of which 0 were active after adding rounds of cuts (0.000 seconds)
TwoMirCuts was tried 1 times and created 3 cuts of which 0 were active after adding rounds of cuts (0.000 seconds)
ZeroHalf was tried 1 times and created 0 cuts of which 0 were active after adding rounds of cuts (0.000 seconds)

Result - Optimal solution found

Objective value:                7023713.81985314
Enumerated nodes:               0
Total iterations:               3
Time (CPU seconds):             0.00
Time (Wallclock seconds):       0.00

Option for printingOptions changed from normal to all
Total time (CPU seconds):       0.01   (Wallclock seconds):       0.01

